\ Model bruno_bruck
\ LP format - for model browsing. Use MPS format to capture full model detail.
\ Signature: 0x688c18e34b89768e
Maximize
  504 x1 + 803 x2 + 667 x3 + 1103 x4 + 834 x5 + 585 x6 + 811 x7 + 856 x8
   + 690 x9 + 832 x10 + 846 x11 + 813 x12 + 868 x13 + 793 x14 + 825 x15
   + 1002 x16 + 860 x17 + 615 x18 + 540 x19 + 797 x20 + 616 x21 + 660 x22
   + 707 x23 + 866 x24 + 647 x25 + 746 x26 + 1006 x27 + 608 x28 + 877 x29
   + 900 x30 + 573 x31 + 788 x32 + 484 x33 + 853 x34 + 942 x35 + 630 x36
   + 591 x37 + 630 x38 + 640 x39 + 1169 x40 + 932 x41 + 1034 x42 + 957 x43
   + 798 x44 + 669 x45 + 625 x46 + 467 x47 + 1051 x48 + 552 x49 + 717 x50
   + 654 x51 + 388 x52 + 559 x53 + 555 x54 + 1104 x55 + 783 x56 + 959 x57
   + 668 x58 + 507 x59 + 855 x60 + 986 x61 + 831 x62 + 821 x63 + 825 x64
   + 868 x65 + 852 x66 + 832 x67 + 828 x68 + 799 x69 + 686 x70 + 510 x71
   + 671 x72 + 575 x73 + 740 x74 + 510 x75 + 675 x76 + 996 x77 + 636 x78
   + 826 x79 + 1022 x80 + 1140 x81 + 654 x82 + 909 x83 + 799 x84 + 1162 x85
   + 653 x86 + 814 x87 + 625 x88 + 599 x89 + 476 x90 + 767 x91 + 954 x92
   + 906 x93 + 904 x94 + 649 x95 + 873 x96 + 565 x97 + 853 x98 + 1008 x99
   + 632 x100
Subject To
 R0: 42 x1 + 41 x2 + 523 x3 + 215 x4 + 819 x5 + 551 x6 + 69 x7 + 193 x8
   + 582 x9 + 375 x10 + 367 x11 + 478 x12 + 162 x13 + 898 x14 + 550 x15
   + 553 x16 + 298 x17 + 577 x18 + 493 x19 + 183 x20 + 260 x21 + 224 x22
   + 852 x23 + 394 x24 + 958 x25 + 282 x26 + 402 x27 + 604 x28 + 164 x29
   + 308 x30 + 218 x31 + 61 x32 + 273 x33 + 772 x34 + 191 x35 + 117 x36
   + 276 x37 + 877 x38 + 415 x39 + 873 x40 + 902 x41 + 465 x42 + 320 x43
   + 870 x44 + 244 x45 + 781 x46 + 86 x47 + 622 x48 + 665 x49 + 155 x50
   + 680 x51 + 101 x52 + 665 x53 + 227 x54 + 597 x55 + 354 x56 + 597 x57
   + 79 x58 + 162 x59 + 998 x60 + 849 x61 + 136 x62 + 112 x63 + 751 x64
   + 735 x65 + 884 x66 + 71 x67 + 449 x68 + 266 x69 + 420 x70 + 797 x71
   + 945 x72 + 746 x73 + 46 x74 + 44 x75 + 545 x76 + 882 x77 + 72 x78
   + 383 x79 + 714 x80 + 987 x81 + 183 x82 + 731 x83 + 301 x84 + 718 x85
   + 91 x86 + 109 x87 + 567 x88 + 708 x89 + 507 x90 + 983 x91 + 808 x92
   + 766 x93 + 615 x94 + 554 x95 + 282 x96 + 995 x97 + 946 x98 + 651 x99
   + 298 x100 <= 11927
 R1: 509 x1 + 883 x2 + 229 x3 + 569 x4 + 706 x5 + 639 x6 + 114 x7 + 727 x8
   + 491 x9 + 481 x10 + 681 x11 + 948 x12 + 687 x13 + 941 x14 + 350 x15
   + 253 x16 + 573 x17 + 40 x18 + 124 x19 + 384 x20 + 660 x21 + 951 x22
   + 739 x23 + 329 x24 + 146 x25 + 593 x26 + 658 x27 + 816 x28 + 638 x29
   + 717 x30 + 779 x31 + 289 x32 + 430 x33 + 851 x34 + 937 x35 + 289 x36
   + 159 x37 + 260 x38 + 930 x39 + 248 x40 + 656 x41 + 833 x42 + 892 x43
   + 60 x44 + 278 x45 + 741 x46 + 297 x47 + 967 x48 + 86 x49 + 249 x50
   + 354 x51 + 614 x52 + 836 x53 + 290 x54 + 893 x55 + 857 x56 + 158 x57
   + 869 x58 + 206 x59 + 504 x60 + 799 x61 + 758 x62 + 431 x63 + 580 x64
   + 780 x65 + 788 x66 + 583 x67 + 641 x68 + 32 x69 + 653 x70 + 252 x71
   + 709 x72 + 129 x73 + 368 x74 + 440 x75 + 314 x76 + 287 x77 + 854 x78
   + 460 x79 + 594 x80 + 512 x81 + 239 x82 + 719 x83 + 751 x84 + 708 x85
   + 670 x86 + 269 x87 + 832 x88 + 137 x89 + 356 x90 + 960 x91 + 651 x92
   + 398 x93 + 893 x94 + 407 x95 + 477 x96 + 552 x97 + 805 x98 + 881 x99
   + 850 x100 <= 13727
 R2: 806 x1 + 361 x2 + 199 x3 + 781 x4 + 596 x5 + 669 x6 + 957 x7 + 358 x8
   + 259 x9 + 888 x10 + 319 x11 + 751 x12 + 275 x13 + 177 x14 + 883 x15
   + 749 x16 + 229 x17 + 265 x18 + 282 x19 + 694 x20 + 819 x21 + 77 x22
   + 190 x23 + 551 x24 + 140 x25 + 442 x26 + 867 x27 + 283 x28 + 137 x29
   + 359 x30 + 445 x31 + 58 x32 + 440 x33 + 192 x34 + 485 x35 + 744 x36
   + 844 x37 + 969 x38 + 50 x39 + 833 x40 + 57 x41 + 877 x42 + 482 x43
   + 732 x44 + 968 x45 + 113 x46 + 486 x47 + 710 x48 + 439 x49 + 747 x50
   + 174 x51 + 260 x52 + 877 x53 + 474 x54 + 841 x55 + 422 x56 + 280 x57
   + 684 x58 + 330 x59 + 910 x60 + 791 x61 + 322 x62 + 404 x63 + 403 x64
   + 519 x65 + 148 x66 + 948 x67 + 414 x68 + 894 x69 + 147 x70 + 73 x71
   + 297 x72 + 97 x73 + 651 x74 + 380 x75 + 67 x76 + 582 x77 + 973 x78
   + 143 x79 + 732 x80 + 624 x81 + 518 x82 + 847 x83 + 113 x84 + 382 x85
   + 97 x86 + 905 x87 + 398 x88 + 859 x89 + 4 x90 + 142 x91 + 110 x92
   + 11 x93 + 213 x94 + 398 x95 + 173 x96 + 106 x97 + 331 x98 + 254 x99
   + 447 x100 <= 11551
 R3: 404 x1 + 197 x2 + 817 x3 + 1000 x4 + 44 x5 + 307 x6 + 39 x7 + 659 x8
   + 46 x9 + 334 x10 + 448 x11 + 599 x12 + 931 x13 + 776 x14 + 263 x15
   + 980 x16 + 807 x17 + 378 x18 + 278 x19 + 841 x20 + 700 x21 + 210 x22
   + 542 x23 + 636 x24 + 388 x25 + 129 x26 + 203 x27 + 110 x28 + 817 x29
   + 502 x30 + 657 x31 + 804 x32 + 662 x33 + 989 x34 + 585 x35 + 645 x36
   + 113 x37 + 436 x38 + 610 x39 + 948 x40 + 919 x41 + 115 x42 + 967 x43
   + 13 x44 + 445 x45 + 449 x46 + 740 x47 + 592 x48 + 327 x49 + 167 x50
   + 368 x51 + 335 x52 + 179 x53 + 909 x54 + 825 x55 + 614 x56 + 987 x57
   + 350 x58 + 179 x59 + 415 x60 + 821 x61 + 525 x62 + 774 x63 + 283 x64
   + 427 x65 + 275 x66 + 659 x67 + 392 x68 + 73 x69 + 896 x70 + 68 x71
   + 982 x72 + 697 x73 + 421 x74 + 246 x75 + 672 x76 + 649 x77 + 731 x78
   + 191 x79 + 514 x80 + 983 x81 + 886 x82 + 95 x83 + 846 x84 + 689 x85
   + 206 x86 + 417 x87 + 14 x88 + 735 x89 + 267 x90 + 822 x91 + 977 x92
   + 302 x93 + 687 x94 + 118 x95 + 990 x96 + 323 x97 + 993 x98 + 525 x99
   + 322 x100 <= 13056
 R4: 475 x1 + 36 x2 + 287 x3 + 577 x4 + 45 x5 + 700 x6 + 803 x7 + 654 x8
   + 196 x9 + 844 x10 + 657 x11 + 387 x12 + 518 x13 + 143 x14 + 515 x15
   + 335 x16 + 942 x17 + 701 x18 + 332 x19 + 803 x20 + 265 x21 + 922 x22
   + 908 x23 + 139 x24 + 995 x25 + 845 x26 + 487 x27 + 100 x28 + 447 x29
   + 653 x30 + 649 x31 + 738 x32 + 424 x33 + 475 x34 + 425 x35 + 926 x36
   + 795 x37 + 47 x38 + 136 x39 + 801 x40 + 904 x41 + 740 x42 + 768 x43
   + 460 x44 + 76 x45 + 660 x46 + 500 x47 + 915 x48 + 897 x49 + 25 x50
   + 716 x51 + 557 x52 + 72 x53 + 696 x54 + 653 x55 + 933 x56 + 420 x57
   + 582 x58 + 810 x59 + 861 x60 + 758 x61 + 647 x62 + 237 x63 + 631 x64
   + 271 x65 + 91 x66 + 75 x67 + 756 x68 + 409 x69 + 440 x70 + 483 x71
   + 336 x72 + 765 x73 + 637 x74 + 981 x75 + 980 x76 + 202 x77 + 35 x78
   + 594 x79 + 689 x80 + 602 x81 + 76 x82 + 767 x83 + 693 x84 + 893 x85
   + 160 x86 + 785 x87 + 311 x88 + 417 x89 + 748 x90 + 375 x91 + 362 x92
   + 617 x93 + 553 x94 + 474 x95 + 915 x96 + 457 x97 + 261 x98 + 350 x99
   + 635 x100 <= 13460
Bounds
 x1 <= 1
 x2 <= 1
 x3 <= 1
 x4 <= 1
 x5 <= 1
 x6 <= 1
 x7 <= 1
 x8 <= 1
 x9 <= 1
 x10 <= 1
 x11 <= 1
 x12 <= 1
 x13 <= 1
 x14 <= 1
 x15 <= 1
 x16 <= 1
 x17 <= 1
 x18 <= 1
 x19 <= 1
 x20 <= 1
 x21 <= 1
 x22 <= 1
 x23 <= 1
 x24 <= 1
 x25 <= 1
 x26 <= 1
 x27 <= 1
 x28 <= 1
 x29 <= 1
 x30 <= 1
 x31 <= 1
 x32 <= 1
 x33 <= 1
 x34 <= 1
 x35 <= 1
 x36 <= 1
 x37 <= 1
 x38 <= 1
 x39 <= 1
 x40 <= 1
 x41 <= 1
 x42 <= 1
 x43 <= 1
 x44 <= 1
 x45 <= 1
 x46 <= 1
 x47 <= 1
 x48 <= 1
 x49 <= 1
 x50 <= 1
 x51 <= 1
 x52 <= 1
 x53 <= 1
 x54 <= 1
 x55 <= 1
 x56 <= 1
 x57 <= 1
 x58 <= 1
 x59 <= 1
 x60 <= 1
 x61 <= 1
 x62 <= 1
 x63 <= 1
 x64 <= 1
 x65 <= 1
 x66 <= 1
 x67 <= 1
 x68 <= 1
 x69 <= 1
 x70 <= 1
 x71 <= 1
 x72 <= 1
 x73 <= 1
 x74 <= 1
 x75 <= 1
 x76 <= 1
 x77 <= 1
 x78 <= 1
 x79 <= 1
 x80 <= 1
 x81 <= 1
 x82 <= 1
 x83 <= 1
 x84 <= 1
 x85 <= 1
 x86 <= 1
 x87 <= 1
 x88 <= 1
 x89 <= 1
 x90 <= 1
 x91 <= 1
 x92 <= 1
 x93 <= 1
 x94 <= 1
 x95 <= 1
 x96 <= 1
 x97 <= 1
 x98 <= 1
 x99 <= 1
 x100 <= 1
End
